Route #1: 20 22 16 4 42 25
Route #2: 13 17 43 29 24
Route #3: 23 9 28 7 32 15 36 39 12 2
Route #4: 31 1 6 34 30 19 11 27 26
Route #5: 14 38 3 10 8 41 33 21 5
Route #6: 35 44 37 40 18
cost 1203.1298828125